w = 24;
n = 18;
measures = [|3, 3,
|3, 4,
|3, 5,
|3, 6,
|3, 7,
|3, 8,
|3, 9,
|3, 10,
|3, 12,
|3, 14,
|3, 18,
|3, 24,
|4, 3,
|4, 4,
|4, 5,
|4, 12,
|5, 8,
|5, 16,
|];
initial_x = [0, 3, 6, 9, 12, 15, 18, 21, 0, 3, 6, 9, 12, 16, 20, 0, 4, 9];
initial_y = [0, 0, 0, 0, 0, 0, 0, 0, 10, 10, 10, 10, 10, 10, 10, 34, 34, 34];